
Gurobi 12.0.2 (win64) logging started Wed Jun  4 16:58:09 2025

Set parameter LogFile to value "C:\Ioana\_uni\honours\slp\algorithm\Main_files\results\others\fatty_acids\Task_017_Sample004_irr_gurobi.log"
Gurobi Optimizer version 12.0.2 build v12.0.2rc0 (win64 - Windows 11.0 (26100.2))

CPU model: Intel(R) Core(TM) Ultra 5 125H, instruction set [SSE2|AVX|AVX2]
Thread count: 14 physical cores, 18 logical processors, using up to 18 threads

Non-default parameters:
TimeLimit  2200

Optimize a model with 47226 rows, 34498 columns and 146685 nonzeros
Model fingerprint: 0x74214f47
Variable types: 17253 continuous, 17245 integer (17245 binary)
Coefficient statistics:
  Matrix range     [1e-04, 8e+04]
  Objective range  [4e-05, 1e+01]
  Bounds range     [1e+00, 1e+03]
  RHS range        [1e+00, 1e+00]
Presolve removed 30824 rows and 21544 columns
Presolve time: 0.50s
Presolved: 16402 rows, 12954 columns, 54582 nonzeros
Variable types: 6409 continuous, 6545 integer (6545 binary)
Found heuristic solution: objective 19.6852679

Root relaxation: objective 1.127222e+00, 488 iterations, 0.02 seconds (0.02 work units)

    Nodes    |    Current Node    |     Objective Bounds      |     Work
 Expl Unexpl |  Obj  Depth IntInf | Incumbent    BestBd   Gap | It/Node Time

     0     0    1.12722    0    1   19.68527    1.12722  94.3%     -    0s
H    0     0                       1.1566047    1.12722  2.54%     -    0s
     0     0    1.12722    0    1    1.15660    1.12722  2.54%     -    0s

Explored 1 nodes (488 simplex iterations) in 0.70 seconds (0.48 work units)
Thread count was 18 (of 18 available processors)

Solution count 2: 1.1566 19.6853 

Optimal solution found (tolerance 1.00e-04)
Best objective 1.156604747162e+00, best bound 1.156604747162e+00, gap 0.0000%
